(set-logic HORN)
(declare-fun inv ((_ BitVec 32) (_ BitVec 32) ) Bool)
(assert (forall ((x (_ BitVec 32)) (y (_ BitVec 32))) 
       (=> ( and ( bvule x (_ bv5 32) ) ( bvuge x (_ bv4 32) ) ( bvule y (_ bv5 32) ) ( bvuge y (_ bv4 32) ) ) (inv x y))))
(assert (forall ((x (_ BitVec 32)) (y (_ BitVec 32)) (x! (_ BitVec 32)) (y! (_ BitVec 32))) 
       (=> (and (inv x y) ( or ( and ( = x! ( bvsub x (_ bv1 32) ) ) ( = y! y ) ( bvuge x (_ bv0 32) ) ( bvuge y (_ bv0 32) ) ) ( and ( = x! x ) ( = y! ( bvsub y (_ bv1 32) ) ) ( bvult x (_ bv0 32) ) ( bvuge y (_ bv0 32) ) ) ( and ( = x! ( bvadd x (_ bv1 32) ) ) ( = y! ( bvsub y (_ bv1 32) ) ) ( bvult y (_ bv0 32) ) ) )) (inv x! y!))))
(assert (forall ((x (_ BitVec 32)) (y (_ BitVec 32))) 
       (=> (inv x y) ( and ( bvule y (_ bv5 32) ) ))))
(check-sat)
